
Gurobi 8.1.0 (linux64, Python) logging started Mon Jun  3 15:05:57 2019

Academic license - for non-commercial use only

Gurobi 8.1.0 (linux64, Python) logging started Mon Jun  3 15:06:59 2019

Academic license - for non-commercial use only

Gurobi 8.1.0 (linux64, Python) logging started Mon Jun  3 15:08:13 2019

Academic license - for non-commercial use only

Gurobi 8.1.0 (linux64, Python) logging started Mon Jun  3 15:09:15 2019

Academic license - for non-commercial use only

Gurobi 8.1.0 (linux64, Python) logging started Mon Jun  3 15:11:09 2019

Academic license - for non-commercial use only

Gurobi 8.1.0 (linux64, Python) logging started Mon Jun  3 15:13:55 2019

Academic license - for non-commercial use only

Gurobi 8.1.0 (linux64, Python) logging started Mon Jun  3 15:16:40 2019

Academic license - for non-commercial use only

Gurobi 8.1.0 (linux64, Python) logging started Mon Jun  3 15:20:09 2019

Academic license - for non-commercial use only

Gurobi 8.1.0 (linux64, Python) logging started Mon Jun  3 15:25:27 2019

Academic license - for non-commercial use only

Gurobi 8.1.0 (linux64, Python) logging started Mon Jun  3 15:29:54 2019

Academic license - for non-commercial use only

Gurobi 8.1.0 (linux64, Python) logging started Mon Jun  3 15:30:34 2019

Academic license - for non-commercial use only

Gurobi 8.1.0 (linux64, Python) logging started Mon Jun  3 15:30:41 2019

Academic license - for non-commercial use only

Gurobi 8.1.0 (linux64, Python) logging started Mon Jun  3 15:30:51 2019

Academic license - for non-commercial use only

Gurobi 8.1.0 (linux64, Python) logging started Mon Jun  3 15:32:14 2019

Academic license - for non-commercial use only

Gurobi 8.1.0 (linux64, Python) logging started Mon Jun  3 15:36:57 2019

Academic license - for non-commercial use only

Gurobi 8.1.0 (linux64, Python) logging started Mon Jun  3 15:38:02 2019

Academic license - for non-commercial use only

Gurobi 8.1.0 (linux64, Python) logging started Mon Jun  3 15:55:00 2019

Academic license - for non-commercial use only

Gurobi 8.1.0 (linux64, Python) logging started Mon Jun  3 16:22:48 2019

Academic license - for non-commercial use only

Gurobi 8.1.0 (linux64, Python) logging started Mon Jun  3 16:48:29 2019

Academic license - for non-commercial use only

Gurobi 8.1.0 (linux64, Python) logging started Mon Jun  3 16:48:50 2019

Academic license - for non-commercial use only

Gurobi 8.1.0 (linux64, Python) logging started Mon Jun  3 17:01:39 2019

Academic license - for non-commercial use only

Gurobi 8.0.1 (linux64, Python) logging started Mon Jun  3 22:28:12 2019

Academic license - for non-commercial use only

Gurobi 8.0.1 (linux64, Python) logging started Mon Jun  3 22:30:31 2019

Academic license - for non-commercial use only

Gurobi 8.0.1 (linux64, Python) logging started Mon Jun  3 22:35:52 2019

Academic license - for non-commercial use only

Gurobi 8.0.1 (linux64, Python) logging started Mon Jun  3 23:03:12 2019

Academic license - for non-commercial use only

Gurobi 8.0.1 (linux64, Python) logging started Mon Jun  3 23:15:46 2019

Academic license - for non-commercial use only

Gurobi 8.0.1 (linux64, Python) logging started Mon Jun  3 23:19:17 2019

Academic license - for non-commercial use only

Gurobi 8.0.1 (linux64, Python) logging started Mon Jun  3 23:20:16 2019

Academic license - for non-commercial use only

Gurobi 8.0.1 (linux64, Python) logging started Mon Jun  3 23:22:41 2019

Academic license - for non-commercial use only

Gurobi 8.0.1 (linux64, Python) logging started Wed Jun  5 12:10:17 2019

Academic license - for non-commercial use only

Gurobi 8.0.1 (linux64, Python) logging started Wed Jun  5 12:10:55 2019

Academic license - for non-commercial use only

Gurobi 8.0.1 (linux64, Python) logging started Wed Jun  5 12:11:36 2019

Academic license - for non-commercial use only

Gurobi 8.0.1 (linux64, Python) logging started Wed Jun  5 12:15:50 2019

Academic license - for non-commercial use only

Gurobi 8.0.1 (linux64, Python) logging started Wed Jun  5 14:43:27 2019

Academic license - for non-commercial use only

Gurobi 8.0.1 (linux64, Python) logging started Wed Jun  5 14:57:26 2019

Academic license - for non-commercial use only

Gurobi 8.0.1 (linux64, Python) logging started Wed Jun  5 15:05:02 2019

Academic license - for non-commercial use only

Gurobi 8.0.1 (linux64, Python) logging started Wed Jun  5 15:05:49 2019

Academic license - for non-commercial use only

Gurobi 8.0.1 (linux64, Python) logging started Wed Jun  5 15:05:53 2019

Academic license - for non-commercial use only

Gurobi 8.0.1 (linux64, Python) logging started Wed Jun  5 15:06:32 2019

Academic license - for non-commercial use only

Gurobi 8.0.1 (linux64, Python) logging started Wed Jun  5 15:06:54 2019

Academic license - for non-commercial use only

Gurobi 8.0.1 (linux64, Python) logging started Wed Jun  5 15:07:07 2019

Academic license - for non-commercial use only

Gurobi 8.0.1 (linux64, Python) logging started Wed Jun  5 15:07:19 2019

Academic license - for non-commercial use only

Gurobi 8.0.1 (linux64, Python) logging started Wed Jun  5 15:12:58 2019

Academic license - for non-commercial use only

Gurobi 8.0.1 (linux64, Python) logging started Wed Jun  5 15:13:38 2019

Academic license - for non-commercial use only

Gurobi 8.0.1 (linux64, Python) logging started Wed Jun  5 15:15:53 2019

Academic license - for non-commercial use only

Gurobi 8.0.1 (linux64, Python) logging started Wed Jun  5 15:18:44 2019

Academic license - for non-commercial use only

Gurobi 8.0.1 (linux64, Python) logging started Wed Jun  5 15:19:57 2019

Academic license - for non-commercial use only

Gurobi 8.0.1 (linux64, Python) logging started Wed Jun  5 15:20:51 2019

Academic license - for non-commercial use only

Gurobi 8.0.1 (linux64, Python) logging started Wed Jun  5 15:21:06 2019

Academic license - for non-commercial use only

Gurobi 8.0.1 (linux64, Python) logging started Wed Jun  5 15:21:25 2019

Academic license - for non-commercial use only

Gurobi 8.0.1 (linux64, Python) logging started Wed Jun  5 15:27:00 2019

Academic license - for non-commercial use only

Gurobi 8.0.1 (linux64, Python) logging started Wed Jun  5 15:27:38 2019

Academic license - for non-commercial use only

Gurobi 8.0.1 (linux64, Python) logging started Wed Jun  5 15:30:17 2019

Academic license - for non-commercial use only

Gurobi 8.0.1 (linux64, Python) logging started Wed Jun  5 15:33:02 2019

Academic license - for non-commercial use only

Gurobi 8.0.1 (linux64, Python) logging started Wed Jun  5 21:10:59 2019

Academic license - for non-commercial use only

Gurobi 8.0.1 (linux64, Python) logging started Wed Jun  5 21:11:47 2019

Academic license - for non-commercial use only

Gurobi 8.0.1 (linux64, Python) logging started Wed Jun  5 21:12:23 2019

Academic license - for non-commercial use only

Gurobi 8.0.1 (linux64, Python) logging started Wed Jun  5 21:12:58 2019

Academic license - for non-commercial use only

Gurobi 8.0.1 (linux64, Python) logging started Wed Jun  5 21:15:54 2019

Academic license - for non-commercial use only

Gurobi 8.0.1 (linux64, Python) logging started Wed Jun  5 21:16:59 2019

Academic license - for non-commercial use only

Gurobi 8.0.1 (linux64, Python) logging started Wed Jun  5 21:17:43 2019

Academic license - for non-commercial use only

Gurobi 8.0.1 (linux64, Python) logging started Wed Jun  5 21:19:16 2019

Academic license - for non-commercial use only

Gurobi 8.0.1 (linux64, Python) logging started Wed Jun  5 21:22:08 2019

Academic license - for non-commercial use only

Gurobi 8.0.1 (linux64, Python) logging started Wed Jun  5 21:22:38 2019

Academic license - for non-commercial use only

Gurobi 8.0.1 (linux64, Python) logging started Wed Jun  5 21:24:08 2019

Academic license - for non-commercial use only

Gurobi 8.0.1 (linux64, Python) logging started Wed Jun  5 21:24:34 2019

Academic license - for non-commercial use only

Gurobi 8.0.1 (linux64, Python) logging started Wed Jun  5 21:24:49 2019

Academic license - for non-commercial use only

Gurobi 8.0.1 (linux64, Python) logging started Wed Jun  5 21:36:19 2019

Academic license - for non-commercial use only

Gurobi 8.0.1 (linux64, Python) logging started Wed Jun  5 21:38:09 2019

Academic license - for non-commercial use only

Gurobi 8.0.1 (linux64, Python) logging started Wed Jun  5 21:41:20 2019

Academic license - for non-commercial use only

Gurobi 8.0.1 (linux64, Python) logging started Wed Jun  5 21:44:40 2019

Academic license - for non-commercial use only

Gurobi 8.0.1 (linux64, Python) logging started Wed Jun  5 21:48:46 2019

Academic license - for non-commercial use only

Gurobi 8.0.1 (linux64, Python) logging started Wed Jun  5 21:49:09 2019

Academic license - for non-commercial use only

Gurobi 8.0.1 (linux64, Python) logging started Wed Jun  5 21:55:03 2019

Academic license - for non-commercial use only

Gurobi 8.0.1 (linux64, Python) logging started Wed Jun  5 21:59:13 2019

Academic license - for non-commercial use only

Gurobi 8.0.1 (linux64, Python) logging started Wed Jun  5 21:59:30 2019

Academic license - for non-commercial use only

Gurobi 8.0.1 (linux64, Python) logging started Wed Jun  5 21:59:53 2019

Academic license - for non-commercial use only

Gurobi 8.0.1 (linux64, Python) logging started Wed Jun  5 22:00:11 2019

Academic license - for non-commercial use only

Gurobi 8.0.1 (linux64, Python) logging started Wed Jun  5 22:00:29 2019

Academic license - for non-commercial use only

Gurobi 8.0.1 (linux64, Python) logging started Wed Jun  5 22:09:58 2019

Academic license - for non-commercial use only

Gurobi 8.0.1 (linux64, Python) logging started Wed Jun  5 22:16:10 2019

Academic license - for non-commercial use only

Gurobi 8.0.1 (linux64, Python) logging started Wed Jun  5 22:17:25 2019

Academic license - for non-commercial use only

Gurobi 8.0.1 (linux64, Python) logging started Wed Jun  5 22:18:37 2019

Academic license - for non-commercial use only

Gurobi 8.0.1 (linux64, Python) logging started Wed Jun  5 22:19:02 2019

Academic license - for non-commercial use only

Gurobi 8.0.1 (linux64, Python) logging started Wed Jun  5 22:20:40 2019

Academic license - for non-commercial use only

Gurobi 8.0.1 (linux64, Python) logging started Wed Jun  5 22:24:06 2019

Academic license - for non-commercial use only

Gurobi 8.0.1 (linux64, Python) logging started Wed Jun  5 22:24:18 2019

Academic license - for non-commercial use only

Gurobi 8.0.1 (linux64, Python) logging started Wed Jun  5 22:25:08 2019

Academic license - for non-commercial use only

Gurobi 8.0.1 (linux64, Python) logging started Wed Jun  5 22:25:16 2019

Academic license - for non-commercial use only

Gurobi 8.0.1 (linux64, Python) logging started Wed Jun  5 22:29:34 2019

Academic license - for non-commercial use only

Gurobi 8.0.1 (linux64, Python) logging started Wed Jun  5 22:32:15 2019

Academic license - for non-commercial use only

Gurobi 8.0.1 (linux64, Python) logging started Wed Jun  5 22:32:59 2019

Academic license - for non-commercial use only

Gurobi 8.0.1 (linux64, Python) logging started Wed Jun  5 22:33:28 2019

Academic license - for non-commercial use only

Gurobi 8.0.1 (linux64, Python) logging started Wed Jun  5 22:33:39 2019

Academic license - for non-commercial use only

Gurobi 8.0.1 (linux64, Python) logging started Wed Jun  5 22:34:22 2019

Academic license - for non-commercial use only

Gurobi 8.0.1 (linux64, Python) logging started Wed Jun  5 22:53:32 2019

Academic license - for non-commercial use only

Gurobi 8.0.1 (linux64, Python) logging started Wed Jun  5 22:53:53 2019

Academic license - for non-commercial use only

Gurobi 8.0.1 (linux64, Python) logging started Wed Jun  5 22:54:58 2019

Academic license - for non-commercial use only

Gurobi 8.0.1 (linux64, Python) logging started Wed Jun  5 22:55:54 2019

Academic license - for non-commercial use only

Gurobi 8.0.1 (linux64, Python) logging started Wed Jun  5 22:58:06 2019

Academic license - for non-commercial use only

Gurobi 8.0.1 (linux64, Python) logging started Wed Jun  5 22:58:46 2019

Academic license - for non-commercial use only

Gurobi 8.0.1 (linux64, Python) logging started Wed Jun  5 23:00:04 2019

Academic license - for non-commercial use only

Gurobi 8.0.1 (linux64, Python) logging started Wed Jun  5 23:00:51 2019

Academic license - for non-commercial use only

Gurobi 8.0.1 (linux64, Python) logging started Wed Jun  5 23:04:24 2019

Academic license - for non-commercial use only

Gurobi 8.0.1 (linux64, Python) logging started Wed Jun  5 23:08:28 2019

Academic license - for non-commercial use only

Gurobi 8.0.1 (linux64, Python) logging started Wed Jun  5 23:10:56 2019

Academic license - for non-commercial use only

Gurobi 8.0.1 (linux64, Python) logging started Wed Jun  5 23:11:21 2019

Academic license - for non-commercial use only

Gurobi 8.0.1 (linux64, Python) logging started Wed Jun  5 23:11:29 2019

Academic license - for non-commercial use only

Gurobi 8.0.1 (linux64, Python) logging started Wed Jun  5 23:12:38 2019

Academic license - for non-commercial use only

Gurobi 8.0.1 (linux64, Python) logging started Wed Jun  5 23:13:27 2019

Academic license - for non-commercial use only

Gurobi 8.0.1 (linux64, Python) logging started Wed Jun  5 23:14:46 2019

Academic license - for non-commercial use only

Gurobi 8.0.1 (linux64, Python) logging started Wed Jun  5 23:16:09 2019

Academic license - for non-commercial use only

Gurobi 8.0.1 (linux64, Python) logging started Wed Jun  5 23:16:44 2019

Academic license - for non-commercial use only

Gurobi 8.0.1 (linux64, Python) logging started Wed Jun  5 23:21:02 2019

Academic license - for non-commercial use only

Gurobi 8.0.1 (linux64, Python) logging started Wed Jun  5 23:22:00 2019

Academic license - for non-commercial use only

Gurobi 8.0.1 (linux64, Python) logging started Wed Jun  5 23:24:14 2019

Academic license - for non-commercial use only

Gurobi 8.1.0 (linux64, Python) logging started Sun 09 Jun 2019 01:59:09 PM PDT

Academic license - for non-commercial use only

Gurobi 8.1.0 (linux64, Python) logging started Sun 09 Jun 2019 01:59:42 PM PDT

Academic license - for non-commercial use only

Gurobi 8.1.0 (linux64, Python) logging started Sun 09 Jun 2019 02:00:09 PM PDT

Academic license - for non-commercial use only

Gurobi 8.1.0 (linux64, Python) logging started Sun 09 Jun 2019 02:01:56 PM PDT

Academic license - for non-commercial use only

Gurobi 8.1.0 (linux64, Python) logging started Sun 09 Jun 2019 02:02:10 PM PDT

Academic license - for non-commercial use only

Gurobi 8.1.0 (linux64, Python) logging started Sun 09 Jun 2019 02:03:50 PM PDT

Academic license - for non-commercial use only

Gurobi 8.1.0 (linux64, Python) logging started Sun 09 Jun 2019 02:16:58 PM PDT

Academic license - for non-commercial use only

Gurobi 8.1.0 (linux64, Python) logging started Sun 09 Jun 2019 02:18:50 PM PDT

Academic license - for non-commercial use only

Gurobi 8.1.0 (linux64, Python) logging started Mon 10 Jun 2019 05:39:49 PM PDT

Academic license - for non-commercial use only

Gurobi 8.0.1 (linux64, Python) logging started Tue Jun 11 02:30:22 2019

Academic license - for non-commercial use only

Gurobi 8.0.1 (linux64, Python) logging started Tue Jun 11 02:37:51 2019

Academic license - for non-commercial use only

Gurobi 8.0.1 (linux64, Python) logging started Tue Jun 11 22:53:05 2019

Academic license - for non-commercial use only

Gurobi 8.0.1 (linux64, Python) logging started Tue Jun 11 23:35:14 2019

Academic license - for non-commercial use only
